1 120 0 170 0
2 241 0 0 0
3 76 0 140 0
4 22 0 200 1
5 223 170 0 1
6 126 0 150 0
7 9 230 220 0
8 270 0 200 0
9 206 0 230 0
10 31 170 0 0
11 104 0 0 1
12 214 180 0 1
13 142 240 240 0
14 182 260 130 1
15 53 0 180 1
16 62 220 0 1
17 62 0 0 0
18 181 220 220 1
19 221 0 0 1
20 223 0 170 1
21 12 240 240 1
22 182 130 220 1
23 107 0 0 0
24 53 220 0 0
25 126 0 0 0
26 135 150 0 0
27 84 0 90 0
28 16 120 120 0
29 6 0 0 0
30 115 110 0 1
31 149 140 280 1
32 84 250 240 0
33 144 250 240 1
34 26 160 160 1
35 24 0 230 0
36 115 0 200 0
37 142 240 0 0
38 149 0 250 0
39 255 0 190 1
40 168 170 0 1
41 16 0 80 1
42 189 0 210 0
43 170 0 260 0
44 59 0 0 1
45 105 150 150 1
46 173 0 240 0
47 105 150 0 0
48 142 0 0 1
49 155 0 0 1
50 173 0 0 1
51 26 160 0 0
52 63 230 0 1
53 126 340 0 1
54 255 0 0 1
55 144 250 120 1
56 149 0 140 1
57 91 0 210 1
58 211 230 230 0
59 218 170 0 1
60 181 0 140 1
61 1 160 0 0
62 211 230 0 1
63 63 0 0 0
64 257 0 0 1
65 217 120 0 1
66 78 0 0 1
67 189 210 210 1
68 168 0 150 0
69 12 0 0 1
70 41 0 90 0
71 135 0 120 1
72 41 0 0 0
73 110 160 0 0
74 107 0 220 1
75 205 0 0 1
76 56 0 0 1
77 194 0 120 0
78 78 0 190 0
79 223 0 0 0
80 77 200 0 1
81 24 230 230 1
82 82 230 0 1
83 9 230 0 0
84 164 0 0 1
85 41 190 0 1
86 149 0 0 1
87 24 0 0 1
88 26 80 0 0
89 107 170 0 1
90 155 0 180 0
91 223 70 0 1
92 90 0 0 1
93 104 180 0 1
94 126 200 0 0
95 270 0 0 1
96 276 0 200 0
97 105 0 0 0
98 6 210 0 1
99 218 0 0 0
100 149 140 0 0
101 47 220 220 1
102 109 0 230 1
103 130 0 240 1
104 84 250 0 0
105 206 0 70 0
106 144 0 210 1
107 182 130 0 1
108 257 190 0 0
109 77 0 0 0
110 104 0 240 1
111 110 0 0 1
112 59 150 150 1
113 110 60 60 1
114 16 200 0 1
115 197 200 0 0
116 26 0 0 1
117 12 0 180 0
118 76 290 0 1
119 144 0 0 0
120 59 0 140 0
121 147 160 0 1
122 31 0 0 1
123 184 0 0 1
124 76 150 0 0
125 82 0 190 1
126 276 140 0 1
127 206 0 0 1
128 56 0 110 1
129 276 200 200 0
130 170 0 170 1
131 9 0 170 0
132 56 170 0 1
133 9 0 0 0
134 135 0 0 0
135 82 230 230 0
136 12 240 0 1
137 53 0 0 1
138 177 0 210 0
139 110 160 160 1
140 78 0 100 1
141 241 0 150 0
142 147 220 230 1
143 269 0 180 1
144 177 240 240 0
145 47 0 0 0
146 197 0 0 0
147 211 0 0 1
148 144 130 120 1
149 16 0 200 0
150 41 190 70 1
151 76 0 0 1
152 121 0 0 0
153 22 210 0 1
154 206 0 180 1
155 205 200 0 0
156 217 0 170 1
157 184 0 180 1
158 269 60 180 0
159 110 0 60 0
160 121 200 200 0
161 16 120 200 1
162 214 0 230 1
163 189 200 0 0
164 218 0 220 1
165 182 130 130 1
166 181 0 280 0
167 223 0 100 0
168 126 200 200 1
169 104 240 240 1
170 194 0 0 1
171 144 240 0 0
172 170 110 0 1
173 115 0 0 0
174 26 0 160 0
175 78 200 0 0
176 182 230 0 1
177 164 150 0 1
178 133 0 200 1
179 31 0 240 0
180 76 280 150 0
181 269 0 0 1
182 144 130 220 0
183 90 200 0 0
184 206 290 0 1
185 269 120 180 0
186 205 0 60 0
187 1 160 100 0
188 173 190 0 1
189 63 0 170 0
190 170 170 170 1
191 206 0 130 1
192 164 170 170 1
193 6 210 210 1
194 168 290 0 0
195 170 0 0 1
196 184 150 0 0
197 78 200 200 0
198 171 190 0 0
199 276 0 0 0
200 47 220 0 0
201 121 190 0 1
202 142 0 180 1
203 149 230 140 1
204 82 0 0 1
205 54 170 0 1
206 233 0 0 0
207 16 120 0 1
208 147 0 0 1
209 59 150 0 0
210 149 140 140 1
211 120 0 0 0
212 144 130 0 1
213 197 0 230 0
214 170 110 90 0
215 62 0 230 0
216 109 230 230 1
217 189 0 0 1
218 214 0 0 1
219 90 0 80 0
220 182 0 0 1
221 105 0 150 0
222 26 160 100 1
223 110 220 0 0
224 130 0 0 0
225 24 200 0 0
226 269 90 0 1
227 130 180 0 1
228 168 170 170 1
229 233 0 210 0
230 109 0 0 0
231 22 210 210 1
232 221 0 190 1
233 76 150 150 0
234 135 150 150 1
235 133 0 0 0
236 16 0 0 1
237 206 240 0 0
238 181 0 0 1
239 115 220 0 0
240 1 0 0 0
241 177 240 0 1
242 54 0 0 0
243 109 200 0 1
244 130 240 240 1
245 149 0 340 0
246 211 0 210 1
247 177 0 0 0
248 181 220 0 0
249 6 0 200 0
250 121 0 200 0
251 91 0 0 1
252 120 210 0 0
253 115 200 200 0
254 144 0 80 0
255 84 0 0 0
256 241 0 300 1
257 170 170 330 1
258 22 0 0 0
259 31 240 240 1
260 255 160 0 0
261 147 0 230 0
262 168 0 0 1
263 217 0 0 1
264 173 240 240 0
265 255 190 190 1
266 182 0 110 0
267 164 0 170 1
268 47 0 180 1
269 171 0 0 0
270 205 200 190 1
270 277 12314 0.015156